solution status: optimal solution found
objective value:                                    0
shell_i_one.thingy.devices[0].thingy.v11                    1 	(obj:0)
shell_j_one.thingy.devices[0].thingy.v11                    1 	(obj:0)
shell_j_one.thingy.devices[3].thingy.v12                    1 	(obj:0)
shell_j_one.thingy.devices[0].thingy.v0                    1 	(obj:0)
shell_j_one.thingy.devices[0].thingy.v2                    1 	(obj:0)
shell_j_one.thingy.devices[1].thingy.v12                    1 	(obj:0)
shell_j_one.thingy.devices[0].thingy.v12                    1 	(obj:0)
shell_j_one.thingy.devices[3].thingy.v3                    1 	(obj:0)
shell_j_one.thingy.devices[3].thingy.v1                    1 	(obj:0)
shell_j_one.thingy.devices[2].thingy.v2                    1 	(obj:0)
shell_j_one.thingy.devices[1].thingy.v1                    1 	(obj:0)
shell_j_one.thingy.devices[1].thingy.v0                    1 	(obj:0)
shell_j_one.thingy.devices[2].thingy.v1                    1 	(obj:0)
shell_j_one.thingy.devices[2].thingy.v11                    1 	(obj:0)
shell_j_one.thingy.devices[0].thingy.v3                    1 	(obj:0)
shell_j_one.thingy.devices[2].thingy.v3                    1 	(obj:0)
shell_j_one.thingy.devices[1].thingy.v2                    1 	(obj:0)
shell_j_one.thingy.devices[2].thingy.v8                    1 	(obj:0)
shell_j_one.thingy.devices[3].thingy.v0                    1 	(obj:0)
shell_j_one.thingy.devices[2].thingy.v0                    1 	(obj:0)
shell_i_one.thingy.devices[0].thingy.v8                    1 	(obj:0)
shell_j_one.thingy.devices[0].thingy.v8                    1 	(obj:0)
shell_j_one.thingy.devices[1].thingy.v11                    1 	(obj:0)
shell_j_one.thingy.devices[3].thingy.v11                    1 	(obj:0)
shell_j_one.thingy.devices[3].thingy.v8                    1 	(obj:0)
shell_j_one.thingy.devices[1].thingy.v8                    1 	(obj:0)
shell_j_one.thingy.devices[3].thingy.v2                    1 	(obj:0)
shell_j_one.thingy.devices[2].thingy.v12                    1 	(obj:0)
shell_j_one.thingy.devices[0].thingy.v1                    1 	(obj:0)
shell_j_one.thingy.devices[1].thingy.v3                    1 	(obj:0)
one.thingy.devices[2].thingy.v1_y                   13 	(obj:0)
one.thingy.devices[2].thingy.v1_z                  -10 	(obj:0)
one.thingy.devices[1].thingy.v12_z                   20 	(obj:0)
one.thingy.devices[0].thingy.v11_z                   15 	(obj:0)
one.thingy.devices[2].thingy.v11_x                   13 	(obj:0)
one.thingy.devices[2].thingy.v11_y                   13 	(obj:0)
one.thingy.devices[2].thingy.v11_z                    7 	(obj:0)
one.thingy.devices[0].thingy.v11_x                   13 	(obj:0)
one.thingy.devices[0].thingy.v12_x                   13 	(obj:0)
one.thingy.devices[0].thingy.v3_x                   13 	(obj:0)
one.thingy.devices[0].thingy.v3_y                   13 	(obj:0)
one.thingy.devices[0].thingy.v3_z                   -1 	(obj:0)
one.thingy.devices[0].thingy.v12_y                   13 	(obj:0)
one.thingy.devices[0].thingy.v12_z                   23 	(obj:0)
one.thingy.devices[2].thingy.v3_x                   13 	(obj:0)
one.thingy.devices[2].thingy.v3_y                   13 	(obj:0)
one.thingy.devices[2].thingy.v3_z                   -9 	(obj:0)
one.thingy.devices[0].thingy.v0_x                   13 	(obj:0)
one.thingy.devices[0].thingy.v0_y                   13 	(obj:0)
one.thingy.devices[1].thingy.v2_x                   13 	(obj:0)
one.thingy.devices[1].thingy.v2_y                   13 	(obj:0)
one.thingy.devices[1].thingy.v2_z                   -7 	(obj:0)
one.thingy.devices[3].thingy.v3_x                    9 	(obj:0)
one.thingy.devices[3].thingy.v3_y                   13 	(obj:0)
one.thingy.devices[2].thingy.v8_x                   13 	(obj:0)
one.thingy.devices[2].thingy.v8_y                   13 	(obj:0)
one.thingy.devices[2].thingy.v8_z                    1 	(obj:0)
one.thingy.devices[3].thingy.v3_z                  -13 	(obj:0)
one.thingy.devices[0].thingy.v0_z                   21 	(obj:0)
one.thingy.devices[3].thingy.v0_x                   13 	(obj:0)
one.thingy.devices[3].thingy.v0_y                   13 	(obj:0)
one.thingy.devices[3].thingy.v0_z                   10 	(obj:0)
one.thingy.devices[0].thingy.v11_y                   13 	(obj:0)
one.thingy.devices[3].thingy.v1_x                   13 	(obj:0)
one.thingy.devices[2].thingy.v0_x                   13 	(obj:0)
one.thingy.devices[2].thingy.v0_y                   13 	(obj:0)
one.thingy.devices[2].thingy.v0_z                   14 	(obj:0)
one.thingy.devices[3].thingy.v1_y                   13 	(obj:0)
one.thingy.devices[3].thingy.v1_z                  -14 	(obj:0)
one.thingy.devices[0].thingy.v8_x                   13 	(obj:0)
one.thingy.devices[0].thingy.v8_y                   13 	(obj:0)
one.thingy.devices[0].thingy.v8_z                    9 	(obj:0)
one.thingy.devices[3].thingy.v12_x                   13 	(obj:0)
one.thingy.devices[0].thingy.v2_x                   13 	(obj:0)
one.thingy.devices[1].thingy.v11_x                   13 	(obj:0)
one.thingy.devices[1].thingy.v11_y                   13 	(obj:0)
one.thingy.devices[1].thingy.v11_z                   11 	(obj:0)
one.thingy.devices[2].thingy.v2_x                   13 	(obj:0)
one.thingy.devices[2].thingy.v2_y                   13 	(obj:0)
one.thingy.devices[3].thingy.v11_x                   13 	(obj:0)
one.thingy.devices[3].thingy.v11_y                   13 	(obj:0)
one.thingy.devices[3].thingy.v11_z                    3 	(obj:0)
one.thingy.devices[2].thingy.v2_z                  -11 	(obj:0)
one.thingy.devices[0].thingy.v2_y                   13 	(obj:0)
one.thingy.devices[3].thingy.v8_x                    9 	(obj:0)
one.thingy.devices[3].thingy.v8_y                   13 	(obj:0)
one.thingy.devices[3].thingy.v8_z                   -3 	(obj:0)
one.thingy.devices[0].thingy.v2_z                   -3 	(obj:0)
one.thingy.devices[1].thingy.v1_x                   13 	(obj:0)
one.thingy.devices[1].thingy.v8_x                   13 	(obj:0)
one.thingy.devices[1].thingy.v8_y                   13 	(obj:0)
one.thingy.devices[1].thingy.v8_z                    5 	(obj:0)
one.thingy.devices[1].thingy.v1_y                   13 	(obj:0)
one.thingy.devices[1].thingy.v1_z                   -6 	(obj:0)
one.thingy.devices[3].thingy.v2_x                   13 	(obj:0)
one.thingy.devices[3].thingy.v2_y                   13 	(obj:0)
one.thingy.devices[3].thingy.v2_z                  -15 	(obj:0)
one.thingy.devices[3].thingy.v12_y                   13 	(obj:0)
one.thingy.devices[3].thingy.v12_z                   12 	(obj:0)
one.thingy.devices[2].thingy.v12_x                   13 	(obj:0)
one.thingy.devices[2].thingy.v12_y                   13 	(obj:0)
one.thingy.devices[2].thingy.v12_z                   16 	(obj:0)
one.thingy.devices[1].thingy.v0_x                   13 	(obj:0)
one.thingy.devices[1].thingy.v0_y                   13 	(obj:0)
one.thingy.devices[0].thingy.v1_x                   13 	(obj:0)
one.thingy.devices[0].thingy.v1_y                   13 	(obj:0)
one.thingy.devices[0].thingy.v1_z                   -2 	(obj:0)
one.thingy.devices[1].thingy.v0_z                   17 	(obj:0)
one.thingy.devices[1].thingy.v12_x                   13 	(obj:0)
one.thingy.devices[1].thingy.v3_x                   13 	(obj:0)
one.thingy.devices[1].thingy.v3_y                   13 	(obj:0)
one.thingy.devices[1].thingy.v3_z                   -5 	(obj:0)
one.thingy.devices[1].thingy.v12_y                   13 	(obj:0)
one.thingy.devices[2].thingy.v1_x                   13 	(obj:0)
